50	100	100	100
51	84	76
71	97	56
86	74	83
60	78	93
78	61	89
67	90	86
61	88	90
89	96	50
89	52	78
53	53	67
51	81	76
82	64	55
70	74	64
57	84	56
61	98	97
75	76	70
97	75	77
57	62	76
56	60	70
83	60	91
57	58	68
99	60	98
62	65	79
69	54	89
50	78	82
57	81	84
81	64	74
74	96	97
65	61	67
84	65	97
94	89	77
83	64	68
79	66	59
96	53	86
88	64	89
75	72	71
90	69	89
86	57	60
99	97	60
91	53	50
88	66	65
64	76	87
78	78	78
52	87	89
54	79	92
93	79	70
92	51	94
57	75	82
82	99	62
69	73	67
